************************************************************************
file with basedata            : j9027_.bas
initial value random generator: 1390946613
************************************************************************
projects                      :  1
jobs (incl. supersource/sink ):  92
horizon                       :  546
RESOURCES
  - renewable                 :  4   R
  - nonrenewable              :  0   N
  - doubly constrained        :  0   D
************************************************************************
PROJECT INFORMATION:
pronr.  #jobs rel.date duedate tardcost  MPM-Time
    1     90      0       84       60       84
************************************************************************
PRECEDENCE RELATIONS:
jobnr.    #modes  #successors   successors
   1        1          3           2   3   4
   2        1          3          10  12  21
   3        1          3          11  13  14
   4        1          3           5   7  17
   5        1          3           6   9  15
   6        1          2          23  38
   7        1          3           8  37  56
   8        1          3          18  22  48
   9        1          3          22  25  34
  10        1          2          35  74
  11        1          2          19  20
  12        1          2          26  45
  13        1          2          72  87
  14        1          3          16  27  50
  15        1          3          28  29  32
  16        1          1          41
  17        1          3          41  58  65
  18        1          2          35  66
  19        1          1          30
  20        1          2          51  64
  21        1          2          24  26
  22        1          3          33  40  42
  23        1          3          53  80  84
  24        1          2          67  69
  25        1          3          44  49  68
  26        1          3          36  41  64
  27        1          1          31
  28        1          2          37  43
  29        1          2          38  87
  30        1          3          52  55  77
  31        1          3          57  59  60
  32        1          1          61
  33        1          3          49  63  67
  34        1          3          46  47  73
  35        1          1          79
  36        1          1          43
  37        1          3          39  45  48
  38        1          2          83  91
  39        1          1          88
  40        1          3          62  63  82
  41        1          3          46  71  76
  42        1          1          45
  43        1          2          61  75
  44        1          2          47  65
  45        1          1          55
  46        1          1          69
  47        1          1          57
  48        1          3          54  62  69
  49        1          1          52
  50        1          1          71
  51        1          2          63  91
  52        1          1          86
  53        1          2          64  72
  54        1          1          57
  55        1          1          66
  56        1          3          70  71  74
  57        1          2          58  78
  58        1          1          76
  59        1          1          77
  60        1          1          83
  61        1          2          62  89
  62        1          1          67
  63        1          1          68
  64        1          1          76
  65        1          1          75
  66        1          2          78  81
  67        1          1          70
  68        1          3          72  80  84
  69        1          2          78  85
  70        1          2          85  90
  71        1          3          73  82  83
  72        1          1          89
  73        1          1          75
  74        1          2          77  80
  75        1          1          85
  76        1          1          79
  77        1          1          81
  78        1          1          79
  79        1          1          87
  80        1          1          90
  81        1          2          82  84
  82        1          1          86
  83        1          1          90
  84        1          1          89
  85        1          1          86
  86        1          1          88
  87        1          1          88
  88        1          1          91
  89        1          1          92
  90        1          1          92
  91        1          1          92
  92        1          0        
************************************************************************
REQUESTS/DURATIONS:
jobnr. mode duration  R 1  R 2  R 3  R 4
------------------------------------------------------------------------
  1      1     0       0    0    0    0
  2      1     7       8   10    0    6
  3      1     9       0    6    6    5
  4      1     5       6    7    1    2
  5      1     1       3    8    6    8
  6      1     9      10    0    1    0
  7      1     1       6    5   10    1
  8      1     9       1   10    9    0
  9      1     2       0    7    4    4
 10      1    10       5    6    1    1
 11      1     5       0    3    6    7
 12      1     8       0    0    8    2
 13      1     5       0    7    6    3
 14      1     8       6    3    0    6
 15      1     6       0    0    6    5
 16      1     2       7    4    2    3
 17      1     5       7    9    9    8
 18      1     7       0    6    1    5
 19      1     8       9    5    9    6
 20      1     1       0    8    6    9
 21      1     8       8    5   10    0
 22      1    10       1    6    9    0
 23      1     6       5    8    0    3
 24      1     5       0    1    7    6
 25      1     5       2    6    6    2
 26      1     5       1   10    7    0
 27      1     5       5    0    2    2
 28      1     3       2    0    7    1
 29      1     7       0    7    1    3
 30      1    10       7    3    3    5
 31      1     9       0    0    7    0
 32      1     9       2    7    4   10
 33      1     4       7    8    0    0
 34      1     8       0    0    1    9
 35      1     9      10    0    0    6
 36      1     2       2    0    5    7
 37      1     6       8    9    2    0
 38      1     7       8    0    5    0
 39      1     6       0    4    8    0
 40      1     4       8   10    5    9
 41      1     9       3   10   10    3
 42      1     3       0    7    0    3
 43      1    10      10    0    0    2
 44      1     5       8    5    0    6
 45      1     7       0    5    2    7
 46      1     7       7    0   10   10
 47      1     8       5   10    7    0
 48      1     6       3    9    1    6
 49      1     9       4    9    5    0
 50      1     8       7    3    8    1
 51      1    10       8    1    7    0
 52      1     7       8    0    2    1
 53      1     3       0    0    6    3
 54      1     4       0    3    0    9
 55      1     8      10    9    8    4
 56      1     1       1    0    9    3
 57      1    10       0    0    0    6
 58      1     2       7    7    0    1
 59      1     2       7    2    0    3
 60      1     4       0    9    0    8
 61      1     6       8   10    0    5
 62      1     4       2    6    9    0
 63      1     9       2    6    5    3
 64      1     8       7    7    5    3
 65      1     4       0    0    1    8
 66      1     5       7   10    3   10
 67      1     3       3    0    9    0
 68      1     6       6    7    9    2
 69      1     2      10    9    0    9
 70      1     6       0    5    5    6
 71      1     1      10    4    1    0
 72      1     6       0    7    7    0
 73      1     8       5    0   10    0
 74      1     9       0   10    5    2
 75      1     9       3   10    0    4
 76      1     9       8    3    0    4
 77      1    10       2    9    8   10
 78      1     7       0    1    0    1
 79      1     9       5   10    3    5
 80      1     7       5    5    8    8
 81      1     5       0    2    3   10
 82      1     6       6   10    4    6
 83      1     1       3    2    2    9
 84      1     2       8    8    2    1
 85      1     6       9    0    2   10
 86      1     8       3    0    0    1
 87      1     3       6    8    6    8
 88      1     8       7    0    1    0
 89      1     5       4    1    0    7
 90      1     6       3    0    8   10
 91      1     9       0    1    0    8
 92      1     0       0    0    0    0
************************************************************************
RESOURCEAVAILABILITIES:
  R 1  R 2  R 3  R 4
   51   64   62   42
************************************************************************
